p edge 133 654
1 100
1 47
1 4
1 2
1 84
2 51
2 23
2 38
2 37
2 3
3 78
3 4
3 73
3 34
3 118
4 5
4 46
4 56
4 61
4 91
5 1
5 120
5 6
5 78
5 97
6 7
6 36
6 111
6 15
7 3
7 8
7 48
7 128
7 94
8 88
8 86
8 9
8 54
8 50
9 56
9 125
9 23
9 97
9 10
10 15
10 4
10 11
10 130
10 48
11 100
11 56
11 12
11 117
11 93
12 38
12 131
12 41
12 13
12 30
13 54
13 11
13 14
13 8
13 18
14 131
14 47
14 121
14 15
14 107
15 33
15 105
15 68
15 16
16 64
16 62
16 58
16 122
16 17
17 18
17 5
17 44
17 31
17 48
18 90
18 19
18 4
18 14
19 26
19 29
19 79
19 13
19 20
20 93
20 21
20 129
20 130
20 72
21 92
21 33
21 122
21 9
21 22
22 120
22 83
22 67
22 23
22 130
23 109
23 51
23 47
23 90
23 24
24 108
24 123
24 25
24 79
24 125
25 32
25 26
25 65
25 29
26 122
26 67
26 31
26 22
26 27
27 13
27 117
27 28
27 92
27 23
28 29
28 50
28 105
28 83
28 75
29 87
29 114
29 117
29 30
29 32
30 80
30 108
30 31
30 94
30 20
31 64
31 61
31 8
31 56
31 32
32 30
32 33
32 20
32 90
32 56
33 23
33 104
33 122
33 101
33 34
34 66
34 35
34 80
34 27
34 6
35 100
35 13
35 5
35 36
35 19
36 66
36 104
36 131
36 37
36 100
37 8
37 59
37 38
37 23
37 62
38 130
38 39
38 31
38 71
38 15
39 40
39 78
39 87
39 20
39 89
40 9
40 4
40 55
40 49
40 41
41 35
41 127
41 42
41 16
41 80
42 43
42 18
42 81
42 76
42 45
43 44
43 62
43 23
43 1
43 27
44 74
44 66
44 77
44 45
44 76
45 58
45 104
45 46
45 48
45 10
46 47
46 96
46 20
46 88
46 83
47 48
47 62
47 79
47 107
47 88
48 35
48 84
48 49
48 109
48 74
49 59
49 65
49 118
49 50
49 5
50 1
50 38
50 51
50 115
50 24
51 111
51 64
51 52
51 2
51 88
52 53
52 73
52 71
52 3
52 94
53 54
53 111
53 77
53 116
53 109
54 116
54 55
54 13
54 24
54 42
55 87
55 63
55 96
55 56
55 33
56 33
56 105
56 57
56 60
56 22
57 27
57 2
57 58
57 31
58 56
58 92
58 4
58 67
58 59
59 101
59 19
59 18
59 72
59 60
60 22
60 2
60 84
60 125
60 61
61 103
61 64
61 62
61 17
61 120
62 63
62 64
62 10
62 84
62 92
63 64
63 83
63 18
63 61
63 48
64 3
64 86
64 59
64 65
65 114
65 116
65 66
65 68
65 54
66 26
66 124
66 67
66 112
66 21
67 86
67 68
67 90
67 46
68 99
68 57
68 78
68 69
68 6
69 101
69 81
69 75
69 23
69 70
70 86
70 35
70 71
70 129
70 98
71 33
71 76
71 45
71 112
71 72
72 9
72 113
72 27
72 48
72 73
73 12
73 78
73 74
73 122
73 27
74 99
74 27
74 72
74 94
74 75
75 43
75 76
75 87
75 124
75 128
76 77
76 98
76 31
76 32
76 65
77 129
77 10
77 62
77 103
77 78
78 79
78 7
78 80
78 48
78 133
79 17
79 80
79 21
79 99
80 81
80 130
80 101
80 8
81 89
81 38
81 114
81 82
81 26
82 6
82 112
82 12
82 80
82 83
83 84
83 35
83 5
83 60
83 99
84 95
84 132
84 71
84 61
84 85
85 105
85 86
85 90
85 113
85 93
86 99
86 87
86 53
86 105
86 38
87 132
87 102
87 88
87 42
87 82
88 89
88 47
88 78
88 42
88 21
89 128
89 14
89 49
89 90
89 67
90 112
90 64
90 39
90 91
90 131
91 45
91 5
91 92
91 36
91 56
92 24
92 52
92 87
92 93
92 29
93 11
93 120
93 46
93 94
93 49
94 70
94 38
94 29
94 132
94 95
95 92
95 49
95 101
95 44
95 96
96 97
96 98
96 90
96 27
96 117
97 80
97 21
97 35
97 4
97 98
98 58
98 106
98 28
98 13
98 99
99 100
99 40
99 37
99 46
99 126
100 49
100 101
100 28
100 47
100 123
101 55
101 102
101 108
101 20
101 13
102 29
102 107
102 78
102 103
102 5
103 57
103 117
103 7
103 104
103 131
104 20
104 52
104 105
104 123
104 60
105 53
105 106
105 60
105 111
105 123
106 28
106 112
106 94
106 107
106 133
107 77
107 108
107 33
107 22
107 75
108 109
108 55
108 5
108 82
108 125
109 13
109 89
109 111
109 132
109 110
110 12
110 30
110 33
110 111
110 9
111 77
111 112
111 19
111 83
111 99
112 113
112 6
112 45
112 9
112 41
113 21
113 96
113 71
113 114
113 55
114 115
114 33
114 131
114 25
114 8
115 126
115 68
115 39
115 5
115 116
116 32
116 74
116 117
116 3
116 123
117 107
117 47
117 41
117 118
117 3
118 33
118 98
118 119
118 87
118 30
119 120
119 121
119 81
119 122
120 93
120 81
120 39
120 82
120 121
121 56
121 64
121 122
121 46
121 114
122 12
122 123
122 8
122 130
122 127
123 82
123 83
123 84
123 78
123 124
124 103
124 125
124 84
124 74
124 26
125 1
125 119
125 126
125 45
125 66
126 8
126 45
126 103
126 117
126 127
127 128
127 37
127 20
127 28
127 17
128 12
128 44
128 78
128 126
128 129
129 103
129 110
129 130
129 104
129 21
130 110
130 125
130 129
130 70
130 131
131 69
131 31
131 132
131 97
131 123
132 133
132 24
132 35
132 67
133 1
133 19
133 48
133 102
133 63
